
Welcome to IBM(R) ILOG(R) CPLEX(R) Interactive Optimizer 22.1.1.0
  with Simplex, Mixed Integer & Barrier Optimizers
5725-A06 5725-A29 5724-Y48 5724-Y49 5724-Y54 5724-Y55 5655-Y21
Copyright IBM Corp. 1988, 2022.  All Rights Reserved.

Type 'help' for a list of available commands.
Type 'help' followed by a command name for more
information on commands.

CPLEX> Selected objective sense:  MINIMIZE
Selected objective  name:  00000000
Selected RHS        name:  RHS1
Selected bound      name:  BOUND
Problem 'eee.mps' read.
Read time = 0.00 sec. (0.01 ticks)
CPLEX> New value for time limit in seconds: 7200
CPLEX> New value for mixed integer optimality gap tolerance: 1e-11
CPLEX> Version identifier: 22.1.1.0 | 2022-11-28 | 9160aff4d
CPXPARAM_TimeLimit                               7200
CPXPARAM_MIP_Tolerances_MIPGap                   9.9999999999999994e-12
Tried aggregator 1 time.
MIP Presolve eliminated 4 rows and 0 columns.
Reduced MIP has 11 rows, 16 columns, and 56 nonzeros.
Reduced MIP has 16 binaries, 0 generals, 0 SOSs, and 0 indicators.
Presolve time = 0.00 sec. (0.04 ticks)
Found incumbent of value 1.1666666e+07 after 0.00 sec. (0.09 ticks)
Probing time = 0.00 sec. (0.01 ticks)
Tried aggregator 1 time.
Detecting symmetries...
Reduced MIP has 11 rows, 16 columns, and 56 nonzeros.
Reduced MIP has 16 binaries, 0 generals, 0 SOSs, and 0 indicators.
Presolve time = 0.00 sec. (0.04 ticks)
Probing time = 0.00 sec. (0.01 ticks)
Clique table members: 8.
MIP emphasis: balance optimality and feasibility.
MIP search method: dynamic search.
Parallel mode: deterministic, using up to 32 threads.
Root relaxation solution time = 0.00 sec. (0.02 ticks)

        Nodes                                         Cuts/
   Node  Left     Objective  IInf  Best Integer    Best Bound    ItCnt     Gap

*     0+    0                       1.16667e+07        0.0000           100.00%
      0     0        cutoff         1.16667e+07                      6    0.00%

Root node processing (before b&c):
  Real time             =    0.01 sec. (0.20 ticks)
Parallel b&c, 32 threads:
  Real time             =    0.00 sec. (0.00 ticks)
  Sync time (average)   =    0.00 sec.
  Wait time (average)   =    0.00 sec.
                          ------------
Total (root+branch&cut) =    0.01 sec. (0.20 ticks)

Solution pool: 1 solution saved.

MIP - Integer optimal solution:  Objective =  1.1666666000e+07
Solution time =    0.02 sec.  Iterations = 6  Nodes = 0
Deterministic time = 0.20 ticks  (9.12 ticks/sec)

CPLEX> Solution 'p2' written to file 'eee.sol'.
CPLEX> 